p edge 150 3353
e 1 9
e 1 12
e 1 13
e 1 14
e 1 15
e 1 17
e 1 21
e 1 23
e 1 30
e 1 31
e 1 36
e 1 38
e 1 42
e 1 48
e 1 49
e 1 58
e 1 62
e 1 65
e 1 68
e 1 69
e 1 70
e 1 71
e 1 74
e 1 75
e 1 76
e 1 77
e 1 83
e 1 86
e 1 90
e 1 91
e 1 93
e 1 94
e 1 95
e 1 98
e 1 100
e 1 106
e 1 108
e 1 110
e 1 113
e 1 120
e 1 124
e 1 125
e 1 126
e 1 132
e 1 136
e 1 142
e 1 144
e 1 149
e 2 6
e 2 9
e 2 10
e 2 11
e 2 12
e 2 16
e 2 20
e 2 22
e 2 26
e 2 27
e 2 28
e 2 32
e 2 33
e 2 44
e 2 46
e 2 48
e 2 49
e 2 52
e 2 54
e 2 58
e 2 59
e 2 60
e 2 63
e 2 68
e 2 73
e 2 74
e 2 75
e 2 78
e 2 79
e 2 83
e 2 85
e 2 87
e 2 91
e 2 93
e 2 94
e 2 98
e 2 99
e 2 100
e 2 101
e 2 119
e 2 120
e 2 121
e 2 122
e 2 125
e 2 126
e 2 130
e 2 131
e 2 132
e 2 134
e 2 139
e 2 141
e 2 144
e 3 9
e 3 16
e 3 22
e 3 23
e 3 24
e 3 25
e 3 28
e 3 31
e 3 33
e 3 35
e 3 38
e 3 42
e 3 46
e 3 48
e 3 50
e 3 51
e 3 55
e 3 59
e 3 60
e 3 63
e 3 72
e 3 75
e 3 77
e 3 80
e 3 81
e 3 82
e 3 84
e 3 86
e 3 92
e 3 95
e 3 99
e 3 110
e 3 111
e 3 114
e 3 116
e 3 117
e 3 125
e 3 127
e 3 128
e 3 131
e 3 134
e 3 137
e 3 138
e 3 139
e 3 140
e 3 142
e 3 144
e 4 5
e 4 11
e 4 12
e 4 15
e 4 16
e 4 24
e 4 25
e 4 28
e 4 29
e 4 31
e 4 35
e 4 36
e 4 39
e 4 51
e 4 56
e 4 57
e 4 58
e 4 64
e 4 66
e 4 72
e 4 73
e 4 87
e 4 88
e 4 89
e 4 93
e 4 95
e 4 97
e 4 99
e 4 102
e 4 106
e 4 107
e 4 109
e 4 111
e 4 114
e 4 119
e 4 121
e 4 126
e 4 132
e 4 133
e 4 137
e 4 141
e 4 149
e 4 150
e 5 6
e 5 13
e 5 19
e 5 22
e 5 24
e 5 31
e 5 32
e 5 36
e 5 41
e 5 44
e 5 46
e 5 47
e 5 48
e 5 49
e 5 54
e 5 60
e 5 63
e 5 65
e 5 69
e 5 76
e 5 77
e 5 79
e 5 82
e 5 85
e 5 91
e 5 92
e 5 93
e 5 96
e 5 97
e 5 98
e 5 106
e 5 109
e 5 110
e 5 113
e 5 118
e 5 121
e 5 125
e 5 126
e 5 127
e 5 131
e 5 132
e 5 134
e 5 135
e 5 138
e 5 143
e 5 148
e 5 149
e 6 11
e 6 14
e 6 15
e 6 16
e 6 23
e 6 24
e 6 25
e 6 27
e 6 28
e 6 31
e 6 34
e 6 37
e 6 40
e 6 41
e 6 47
e 6 49
e 6 50
e 6 51
e 6 55
e 6 60
e 6 62
e 6 65
e 6 67
e 6 69
e 6 71
e 6 75
e 6 79
e 6 80
e 6 82
e 6 85
e 6 89
e 6 94
e 6 96
e 6 97
e 6 102
e 6 108
e 6 123
e 6 126
e 6 129
e 6 135
e 6 138
e 6 139
e 6 141
e 6 147
e 6 150
e 7 12
e 7 15
e 7 21
e 7 22
e 7 31
e 7 35
e 7 37
e 7 38
e 7 39
e 7 41
e 7 42
e 7 43
e 7 49
e 7 52
e 7 54
e 7 57
e 7 58
e 7 60
e 7 61
e 7 63
e 7 67
e 7 71
e 7 73
e 7 74
e 7 86
e 7 88
e 7 99
e 7 100
e 7 101
e 7 105
e 7 106
e 7 108
e 7 112
e 7 116
e 7 118
e 7 120
e 7 122
e 7 124
e 7 127
e 7 130
e 7 132
e 7 142
e 7 143
e 7 144
e 7 145
e 8 23
e 8 31
e 8 33
e 8 39
e 8 42
e 8 45
e 8 50
e 8 53
e 8 57
e 8 66
e 8 68
e 8 72
e 8 75
e 8 77
e 8 78
e 8 79
e 8 83
e 8 86
e 8 90
e 8 91
e 8 94
e 8 99
e 8 102
e 8 110
e 8 111
e 8 112
e 8 119
e 8 120
e 8 121
e 8 124
e 8 126
e 8 127
e 8 128
e 8 129
e 8 130
e 8 143
e 8 144
e 9 10
e 9 19
e 9 20
e 9 25
e 9 27
e 9 28
e 9 33
e 9 35
e 9 38
e 9 41
e 9 43
e 9 50
e 9 54
e 9 55
e 9 63
e 9 66
e 9 76
e 9 80
e 9 81
e 9 84
e 9 85
e 9 89
e 9 94
e 9 95
e 9 98
e 9 99
e 9 100
e 9 103
e 9 105
e 9 113
e 9 115
e 9 116
e 9 119
e 9 122
e 9 126
e 9 127
e 9 128
e 9 130
e 9 133
e 9 138
e 9 140
e 9 141
e 9 142
e 9 143
e 9 145
e 9 148
e 10 14
e 10 15
e 10 16
e 10 18
e 10 19
e 10 23
e 10 25
e 10 28
e 10 30
e 10 31
e 10 32
e 10 40
e 10 45
e 10 48
e 10 52
e 10 65
e 10 66
e 10 69
e 10 71
e 10 73
e 10 77
e 10 81
e 10 82
e 10 94
e 10 97
e 10 99
e 10 102
e 10 104
e 10 112
e 10 114
e 10 119
e 10 122
e 10 123
e 10 124
e 10 126
e 10 127
e 10 133
e 10 144
e 10 147
e 10 149
e 11 12
e 11 18
e 11 19
e 11 20
e 11 24
e 11 31
e 11 45
e 11 48
e 11 50
e 11 54
e 11 61
e 11 66
e 11 70
e 11 73
e 11 77
e 11 79
e 11 83
e 11 86
e 11 96
e 11 100
e 11 101
e 11 102
e 11 103
e 11 106
e 11 107
e 11 109
e 11 110
e 11 112
e 11 119
e 11 120
e 11 121
e 11 122
e 11 123
e 11 133
e 11 134
e 11 138
e 11 140
e 11 141
e 11 149
e 12 15
e 12 17
e 12 18
e 12 19
e 12 22
e 12 24
e 12 28
e 12 30
e 12 31
e 12 32
e 12 35
e 12 37
e 12 47
e 12 50
e 12 54
e 12 56
e 12 62
e 12 66
e 12 68
e 12 78
e 12 79
e 12 81
e 12 85
e 12 89
e 12 93
e 12 94
e 12 96
e 12 98
e 12 99
e 12 107
e 12 111
e 12 113
e 12 124
e 12 130
e 12 132
e 12 134
e 12 137
e 12 145
e 12 146
e 12 147
e 13 17
e 13 20
e 13 22
e 13 23
e 13 24
e 13 27
e 13 29
e 13 31
e 13 32
e 13 33
e 13 41
e 13 44
e 13 50
e 13 57
e 13 59
e 13 61
e 13 64
e 13 73
e 13 74
e 13 76
e 13 89
e 13 90
e 13 91
e 13 92
e 13 101
e 13 102
e 13 104
e 13 105
e 13 106
e 13 110
e 13 112
e 13 120
e 13 121
e 13 122
e 13 123
e 13 124
e 13 125
e 13 126
e 13 129
e 13 130
e 13 135
e 13 139
e 13 144
e 13 146
e 13 147
e 13 148
e 14 17
e 14 21
e 14 33
e 14 35
e 14 37
e 14 39
e 14 40
e 14 44
e 14 47
e 14 48
e 14 49
e 14 53
e 14 56
e 14 64
e 14 68
e 14 69
e 14 71
e 14 72
e 14 73
e 14 75
e 14 77
e 14 79
e 14 81
e 14 82
e 14 84
e 14 85
e 14 92
e 14 99
e 14 103
e 14 109
e 14 111
e 14 113
e 14 114
e 14 119
e 14 122
e 14 123
e 14 124
e 14 125
e 14 126
e 14 134
e 14 136
e 14 137
e 14 144
e 14 148
e 14 149
e 15 16
e 15 18
e 15 19
e 15 22
e 15 30
e 15 39
e 15 43
e 15 44
e 15 51
e 15 60
e 15 61
e 15 64
e 15 65
e 15 76
e 15 78
e 15 87
e 15 91
e 15 99
e 15 105
e 15 106
e 15 109
e 15 111
e 15 112
e 15 116
e 15 120
e 15 122
e 15 124
e 15 125
e 15 133
e 15 135
e 15 138
e 15 140
e 15 143
e 15 145
e 15 146
e 15 148
e 16 17
e 16 19
e 16 22
e 16 25
e 16 28
e 16 31
e 16 37
e 16 38
e 16 39
e 16 42
e 16 44
e 16 47
e 16 51
e 16 54
e 16 62
e 16 63
e 16 67
e 16 71
e 16 79
e 16 81
e 16 85
e 16 86
e 16 96
e 16 101
e 16 102
e 16 108
e 16 110
e 16 111
e 16 115
e 16 116
e 16 117
e 16 118
e 16 121
e 16 122
e 16 135
e 16 141
e 16 150
e 17 22
e 17 24
e 17 25
e 17 29
e 17 31
e 17 49
e 17 50
e 17 55
e 17 69
e 17 70
e 17 71
e 17 81
e 17 83
e 17 87
e 17 89
e 17 93
e 17 95
e 17 98
e 17 101
e 17 104
e 17 107
e 17 108
e 17 110
e 17 116
e 17 122
e 17 128
e 17 130
e 17 133
e 17 135
e 17 136
e 17 138
e 17 141
e 17 145
e 17 146
e 17 147
e 17 149
e 18 22
e 18 23
e 18 24
e 18 33
e 18 36
e 18 38
e 18 41
e 18 42
e 18 46
e 18 54
e 18 57
e 18 60
e 18 62
e 18 63
e 18 67
e 18 78
e 18 79
e 18 83
e 18 90
e 18 97
e 18 101
e 18 103
e 18 105
e 18 110
e 18 113
e 18 117
e 18 118
e 18 119
e 18 126
e 18 131
e 18 132
e 18 136
e 18 142
e 18 144
e 18 146
e 19 20
e 19 21
e 19 27
e 19 28
e 19 37
e 19 45
e 19 48
e 19 49
e 19 51
e 19 55
e 19 58
e 19 60
e 19 74
e 19 81
e 19 88
e 19 93
e 19 100
e 19 102
e 19 117
e 19 119
e 19 124
e 19 125
e 19 126
e 19 135
e 19 138
e 19 142
e 19 145
e 19 147
e 19 149
e 20 27
e 20 28
e 20 31
e 20 35
e 20 39
e 20 44
e 20 49
e 20 52
e 20 54
e 20 56
e 20 66
e 20 68
e 20 69
e 20 78
e 20 80
e 20 83
e 20 89
e 20 90
e 20 91
e 20 100
e 20 104
e 20 114
e 20 116
e 20 117
e 20 119
e 20 120
e 20 121
e 20 123
e 20 127
e 20 132
e 20 133
e 20 134
e 20 138
e 20 148
e 20 149
e 21 23
e 21 27
e 21 29
e 21 32
e 21 37
e 21 44
e 21 47
e 21 51
e 21 60
e 21 64
e 21 67
e 21 69
e 21 80
e 21 84
e 21 87
e 21 90
e 21 94
e 21 95
e 21 107
e 21 115
e 21 122
e 21 129
e 21 132
e 21 139
e 21 140
e 21 145
e 22 24
e 22 25
e 22 26
e 22 28
e 22 32
e 22 36
e 22 37
e 22 38
e 22 39
e 22 45
e 22 46
e 22 47
e 22 48
e 22 49
e 22 52
e 22 60
e 22 62
e 22 63
e 22 71
e 22 74
e 22 77
e 22 78
e 22 79
e 22 89
e 22 90
e 22 91
e 22 92
e 22 93
e 22 96
e 22 98
e 22 99
e 22 100
e 22 101
e 22 102
e 22 108
e 22 114
e 22 118
e 22 121
e 22 127
e 22 129
e 22 132
e 22 133
e 22 134
e 22 135
e 22 136
e 22 137
e 22 141
e 22 143
e 22 150
e 23 33
e 23 35
e 23 43
e 23 46
e 23 52
e 23 53
e 23 54
e 23 56
e 23 58
e 23 70
e 23 71
e 23 74
e 23 75
e 23 76
e 23 77
e 23 78
e 23 88
e 23 91
e 23 92
e 23 97
e 23 104
e 23 111
e 23 113
e 23 114
e 23 116
e 23 117
e 23 118
e 23 119
e 23 122
e 23 124
e 23 125
e 23 132
e 23 135
e 23 136
e 23 139
e 23 140
e 23 143
e 23 144
e 23 145
e 23 146
e 23 150
e 24 28
e 24 30
e 24 32
e 24 38
e 24 40
e 24 43
e 24 50
e 24 52
e 24 61
e 24 62
e 24 65
e 24 70
e 24 73
e 24 77
e 24 81
e 24 84
e 24 85
e 24 89
e 24 94
e 24 97
e 24 99
e 24 102
e 24 104
e 24 110
e 24 114
e 24 116
e 24 118
e 24 126
e 24 130
e 24 132
e 24 133
e 24 134
e 24 138
e 24 140
e 24 143
e 25 33
e 25 34
e 25 35
e 25 36
e 25 38
e 25 41
e 25 44
e 25 45
e 25 49
e 25 52
e 25 55
e 25 60
e 25 63
e 25 65
e 25 67
e 25 70
e 25 71
e 25 76
e 25 82
e 25 84
e 25 86
e 25 93
e 25 96
e 25 101
e 25 111
e 25 115
e 25 116
e 25 120
e 25 126
e 25 129
e 25 133
e 25 134
e 25 140
e 25 141
e 25 143
e 25 145
e 25 147
e 25 149
e 26 39
e 26 41
e 26 42
e 26 45
e 26 46
e 26 50
e 26 51
e 26 52
e 26 53
e 26 55
e 26 61
e 26 64
e 26 68
e 26 70
e 26 71
e 26 74
e 26 76
e 26 78
e 26 79
e 26 81
e 26 82
e 26 86
e 26 88
e 26 89
e 26 90
e 26 95
e 26 97
e 26 107
e 26 109
e 26 113
e 26 116
e 26 121
e 26 122
e 26 125
e 26 127
e 26 129
e 26 130
e 26 134
e 26 137
e 26 138
e 26 140
e 26 142
e 27 29
e 27 33
e 27 34
e 27 36
e 27 37
e 27 39
e 27 41
e 27 46
e 27 47
e 27 48
e 27 50
e 27 53
e 27 56
e 27 58
e 27 59
e 27 60
e 27 61
e 27 66
e 27 67
e 27 68
e 27 72
e 27 75
e 27 81
e 27 88
e 27 93
e 27 96
e 27 102
e 27 111
e 27 112
e 27 115
e 27 119
e 27 121
e 27 129
e 27 132
e 27 138
e 27 141
e 27 142
e 27 143
e 27 144
e 27 145
e 28 32
e 28 35
e 28 36
e 28 38
e 28 40
e 28 42
e 28 47
e 28 54
e 28 63
e 28 69
e 28 82
e 28 83
e 28 86
e 28 88
e 28 90
e 28 91
e 28 101
e 28 119
e 28 127
e 28 134
e 28 135
e 28 140
e 28 141
e 28 143
e 29 33
e 29 34
e 29 36
e 29 42
e 29 44
e 29 45
e 29 46
e 29 54
e 29 59
e 29 66
e 29 69
e 29 72
e 29 73
e 29 75
e 29 82
e 29 83
e 29 86
e 29 92
e 29 94
e 29 102
e 29 103
e 29 106
e 29 112
e 29 123
e 29 127
e 29 129
e 29 138
e 29 141
e 29 148
e 29 150
e 30 34
e 30 36
e 30 39
e 30 41
e 30 43
e 30 49
e 30 52
e 30 58
e 30 59
e 30 63
e 30 66
e 30 67
e 30 68
e 30 69
e 30 73
e 30 74
e 30 81
e 30 86
e 30 93
e 30 101
e 30 103
e 30 107
e 30 110
e 30 115
e 30 117
e 30 118
e 30 120
e 30 122
e 30 125
e 30 126
e 30 136
e 30 139
e 30 144
e 30 147
e 30 150
e 31 32
e 31 37
e 31 40
e 31 50
e 31 51
e 31 54
e 31 56
e 31 57
e 31 58
e 31 59
e 31 60
e 31 63
e 31 64
e 31 73
e 31 74
e 31 75
e 31 88
e 31 90
e 31 92
e 31 99
e 31 100
e 31 102
e 31 105
e 31 108
e 31 109
e 31 110
e 31 111
e 31 113
e 31 116
e 31 119
e 31 121
e 31 124
e 31 125
e 31 134
e 31 137
e 31 138
e 31 140
e 31 142
e 31 144
e 32 37
e 32 38
e 32 40
e 32 43
e 32 46
e 32 49
e 32 56
e 32 57
e 32 60
e 32 61
e 32 64
e 32 72
e 32 74
e 32 75
e 32 77
e 32 83
e 32 84
e 32 85
e 32 87
e 32 89
e 32 95
e 32 99
e 32 101
e 32 104
e 32 106
e 32 107
e 32 109
e 32 112
e 32 114
e 32 115
e 32 119
e 32 128
e 32 134
e 32 137
e 32 139
e 32 140
e 32 142
e 32 145
e 33 34
e 33 38
e 33 41
e 33 42
e 33 44
e 33 46
e 33 51
e 33 56
e 33 59
e 33 72
e 33 76
e 33 79
e 33 80
e 33 82
e 33 86
e 33 90
e 33 92
e 33 96
e 33 97
e 33 100
e 33 109
e 33 111
e 33 113
e 33 114
e 33 116
e 33 119
e 33 120
e 33 122
e 33 127
e 33 132
e 33 135
e 33 137
e 33 140
e 33 142
e 33 144
e 34 35
e 34 39
e 34 40
e 34 42
e 34 45
e 34 47
e 34 54
e 34 61
e 34 62
e 34 63
e 34 65
e 34 67
e 34 68
e 34 71
e 34 72
e 34 84
e 34 85
e 34 90
e 34 92
e 34 98
e 34 102
e 34 104
e 34 107
e 34 110
e 34 113
e 34 114
e 34 118
e 34 120
e 34 125
e 34 128
e 34 134
e 34 135
e 34 136
e 34 142
e 34 145
e 34 146
e 34 147
e 34 150
e 35 38
e 35 39
e 35 42
e 35 44
e 35 46
e 35 50
e 35 53
e 35 55
e 35 58
e 35 59
e 35 60
e 35 65
e 35 66
e 35 68
e 35 79
e 35 80
e 35 81
e 35 82
e 35 85
e 35 87
e 35 89
e 35 90
e 35 94
e 35 99
e 35 101
e 35 107
e 35 112
e 35 117
e 35 121
e 35 122
e 35 130
e 35 135
e 35 139
e 35 145
e 35 148
e 35 150
e 36 37
e 36 40
e 36 46
e 36 47
e 36 48
e 36 50
e 36 55
e 36 64
e 36 70
e 36 72
e 36 75
e 36 78
e 36 80
e 36 88
e 36 90
e 36 93
e 36 94
e 36 96
e 36 97
e 36 103
e 36 104
e 36 116
e 36 121
e 36 127
e 36 130
e 36 132
e 36 133
e 36 140
e 36 147
e 37 39
e 37 41
e 37 44
e 37 46
e 37 47
e 37 50
e 37 51
e 37 52
e 37 59
e 37 61
e 37 64
e 37 67
e 37 73
e 37 76
e 37 80
e 37 82
e 37 86
e 37 87
e 37 95
e 37 97
e 37 98
e 37 99
e 37 100
e 37 103
e 37 104
e 37 108
e 37 111
e 37 112
e 37 113
e 37 116
e 37 119
e 37 121
e 37 131
e 37 134
e 37 139
e 37 140
e 37 141
e 37 143
e 37 146
e 37 150
e 38 39
e 38 43
e 38 44
e 38 49
e 38 51
e 38 54
e 38 57
e 38 61
e 38 63
e 38 67
e 38 82
e 38 84
e 38 86
e 38 88
e 38 89
e 38 92
e 38 96
e 38 104
e 38 108
e 38 110
e 38 111
e 38 114
e 38 115
e 38 118
e 38 119
e 38 121
e 38 125
e 38 127
e 38 136
e 38 137
e 38 139
e 38 143
e 38 150
e 39 42
e 39 46
e 39 48
e 39 49
e 39 53
e 39 56
e 39 59
e 39 64
e 39 65
e 39 66
e 39 67
e 39 70
e 39 78
e 39 81
e 39 83
e 39 84
e 39 87
e 39 89
e 39 90
e 39 91
e 39 92
e 39 95
e 39 96
e 39 97
e 39 113
e 39 117
e 39 121
e 39 123
e 39 131
e 39 132
e 39 138
e 39 139
e 39 140
e 39 142
e 39 144
e 39 147
e 40 41
e 40 42
e 40 43
e 40 44
e 40 45
e 40 46
e 40 52
e 40 57
e 40 61
e 40 65
e 40 68
e 40 83
e 40 87
e 40 89
e 40 90
e 40 91
e 40 93
e 40 94
e 40 95
e 40 97
e 40 101
e 40 105
e 40 110
e 40 111
e 40 112
e 40 114
e 40 117
e 40 122
e 40 124
e 40 127
e 40 129
e 40 130
e 40 131
e 40 133
e 40 134
e 40 148
e 41 48
e 41 50
e 41 54
e 41 59
e 41 63
e 41 67
e 41 71
e 41 73
e 41 76
e 41 78
e 41 84
e 41 85
e 41 86
e 41 87
e 41 88
e 41 90
e 41 97
e 41 99
e 41 100
e 41 102
e 41 106
e 41 109
e 41 116
e 41 119
e 41 124
e 41 125
e 41 128
e 41 132
e 41 134
e 41 137
e 41 142
e 41 143
e 41 144
e 41 145
e 41 147
e 42 45
e 42 51
e 42 66
e 42 72
e 42 74
e 42 75
e 42 76
e 42 79
e 42 81
e 42 85
e 42 87
e 42 89
e 42 90
e 42 95
e 42 98
e 42 101
e 42 102
e 42 104
e 42 107
e 42 109
e 42 111
e 42 112
e 42 113
e 42 116
e 42 129
e 42 131
e 42 132
e 42 139
e 42 140
e 42 143
e 42 145
e 43 45
e 43 46
e 43 48
e 43 61
e 43 62
e 43 69
e 43 75
e 43 78
e 43 79
e 43 80
e 43 86
e 43 95
e 43 96
e 43 99
e 43 102
e 43 104
e 43 105
e 43 106
e 43 110
e 43 113
e 43 114
e 43 120
e 43 123
e 43 129
e 43 131
e 43 132
e 43 133
e 43 136
e 43 138
e 43 139
e 44 45
e 44 46
e 44 52
e 44 54
e 44 57
e 44 61
e 44 64
e 44 65
e 44 66
e 44 73
e 44 74
e 44 78
e 44 80
e 44 86
e 44 87
e 44 89
e 44 93
e 44 95
e 44 98
e 44 100
e 44 106
e 44 109
e 44 119
e 44 122
e 44 123
e 44 124
e 44 127
e 44 128
e 44 129
e 44 133
e 44 142
e 44 144
e 44 146
e 45 47
e 45 50
e 45 57
e 45 60
e 45 61
e 45 68
e 45 69
e 45 74
e 45 78
e 45 79
e 45 85
e 45 93
e 45 97
e 45 102
e 45 103
e 45 107
e 45 108
e 45 114
e 45 115
e 45 118
e 45 120
e 45 122
e 45 125
e 45 128
e 45 129
e 45 132
e 45 133
e 45 138
e 45 141
e 45 142
e 45 145
e 45 146
e 45 149
e 45 150
e 46 49
e 46 51
e 46 58
e 46 59
e 46 60
e 46 61
e 46 74
e 46 78
e 46 84
e 46 92
e 46 93
e 46 96
e 46 102
e 46 103
e 46 109
e 46 112
e 46 115
e 46 122
e 46 125
e 46 129
e 46 132
e 46 135
e 46 136
e 46 137
e 46 140
e 46 144
e 46 146
e 46 147
e 46 148
e 47 58
e 47 61
e 47 66
e 47 69
e 47 72
e 47 76
e 47 78
e 47 81
e 47 84
e 47 85
e 47 88
e 47 94
e 47 95
e 47 96
e 47 99
e 47 104
e 47 105
e 47 107
e 47 108
e 47 109
e 47 112
e 47 115
e 47 119
e 47 123
e 47 124
e 47 131
e 47 143
e 47 145
e 47 149
e 48 52
e 48 55
e 48 60
e 48 62
e 48 65
e 48 69
e 48 73
e 48 79
e 48 88
e 48 91
e 48 95
e 48 104
e 48 109
e 48 110
e 48 115
e 48 116
e 48 121
e 48 124
e 48 131
e 48 133
e 48 134
e 48 142
e 48 145
e 48 149
e 49 60
e 49 61
e 49 63
e 49 66
e 49 69
e 49 70
e 49 72
e 49 73
e 49 77
e 49 78
e 49 82
e 49 84
e 49 85
e 49 87
e 49 88
e 49 89
e 49 92
e 49 94
e 49 95
e 49 101
e 49 103
e 49 104
e 49 107
e 49 108
e 49 116
e 49 118
e 49 119
e 49 125
e 49 127
e 49 134
e 49 135
e 49 136
e 49 137
e 49 140
e 49 145
e 49 146
e 49 148
e 49 149
e 50 54
e 50 57
e 50 60
e 50 61
e 50 63
e 50 68
e 50 71
e 50 72
e 50 77
e 50 79
e 50 84
e 50 86
e 50 88
e 50 92
e 50 93
e 50 95
e 50 98
e 50 99
e 50 102
e 50 105
e 50 106
e 50 110
e 50 115
e 50 117
e 50 118
e 50 122
e 50 123
e 50 128
e 50 131
e 50 133
e 50 136
e 50 143
e 51 52
e 51 55
e 51 58
e 51 62
e 51 64
e 51 65
e 51 68
e 51 75
e 51 76
e 51 78
e 51 80
e 51 81
e 51 86
e 51 87
e 51 90
e 51 92
e 51 95
e 51 96
e 51 98
e 51 102
e 51 103
e 51 104
e 51 109
e 51 110
e 51 112
e 51 114
e 51 117
e 51 124
e 51 125
e 51 128
e 51 129
e 51 132
e 51 134
e 51 136
e 51 138
e 51 141
e 51 144
e 51 145
e 51 149
e 52 53
e 52 54
e 52 55
e 52 61
e 52 69
e 52 88
e 52 89
e 52 90
e 52 94
e 52 96
e 52 99
e 52 101
e 52 104
e 52 105
e 52 107
e 52 108
e 52 109
e 52 114
e 52 121
e 52 123
e 52 126
e 52 137
e 52 147
e 53 55
e 53 56
e 53 58
e 53 59
e 53 61
e 53 65
e 53 67
e 53 74
e 53 76
e 53 77
e 53 80
e 53 81
e 53 82
e 53 87
e 53 90
e 53 102
e 53 104
e 53 106
e 53 111
e 53 113
e 53 114
e 53 115
e 53 116
e 53 124
e 53 127
e 53 130
e 53 131
e 53 135
e 53 136
e 53 139
e 53 142
e 53 148
e 53 149
e 54 57
e 54 58
e 54 64
e 54 65
e 54 67
e 54 69
e 54 73
e 54 78
e 54 89
e 54 90
e 54 91
e 54 93
e 54 94
e 54 96
e 54 97
e 54 98
e 54 101
e 54 106
e 54 111
e 54 120
e 54 127
e 54 130
e 54 133
e 54 135
e 54 144
e 55 61
e 55 62
e 55 63
e 55 75
e 55 77
e 55 78
e 55 80
e 55 81
e 55 97
e 55 98
e 55 99
e 55 107
e 55 110
e 55 113
e 55 118
e 55 121
e 55 125
e 55 128
e 55 130
e 55 131
e 55 135
e 55 136
e 55 137
e 55 142
e 56 58
e 56 65
e 56 66
e 56 73
e 56 74
e 56 78
e 56 82
e 56 84
e 56 88
e 56 90
e 56 91
e 56 98
e 56 109
e 56 111
e 56 118
e 56 124
e 56 125
e 56 128
e 56 129
e 56 130
e 56 131
e 56 133
e 56 134
e 56 138
e 56 142
e 56 145
e 56 148
e 56 150
e 57 64
e 57 69
e 57 71
e 57 74
e 57 76
e 57 80
e 57 82
e 57 87
e 57 89
e 57 93
e 57 98
e 57 99
e 57 102
e 57 103
e 57 104
e 57 106
e 57 114
e 57 116
e 57 117
e 57 119
e 57 127
e 57 132
e 57 133
e 57 137
e 57 138
e 57 140
e 57 142
e 57 143
e 57 150
e 58 60
e 58 66
e 58 73
e 58 75
e 58 83
e 58 85
e 58 87
e 58 88
e 58 92
e 58 96
e 58 97
e 58 104
e 58 105
e 58 110
e 58 114
e 58 117
e 58 118
e 58 119
e 58 120
e 58 123
e 58 125
e 58 129
e 58 132
e 58 137
e 58 139
e 58 146
e 58 147
e 58 148
e 58 150
e 59 72
e 59 74
e 59 79
e 59 80
e 59 86
e 59 88
e 59 89
e 59 90
e 59 92
e 59 94
e 59 100
e 59 101
e 59 106
e 59 110
e 59 114
e 59 116
e 59 118
e 59 119
e 59 121
e 59 134
e 59 135
e 59 136
e 59 138
e 59 145
e 59 149
e 59 150
e 60 62
e 60 64
e 60 65
e 60 68
e 60 71
e 60 73
e 60 79
e 60 80
e 60 81
e 60 91
e 60 94
e 60 95
e 60 96
e 60 107
e 60 110
e 60 117
e 60 122
e 60 139
e 60 143
e 60 145
e 60 147
e 61 68
e 61 69
e 61 70
e 61 74
e 61 80
e 61 92
e 61 93
e 61 101
e 61 103
e 61 109
e 61 111
e 61 112
e 61 117
e 61 122
e 61 128
e 61 139
e 61 141
e 61 143
e 61 144
e 61 147
e 61 148
e 61 149
e 62 63
e 62 72
e 62 75
e 62 77
e 62 84
e 62 91
e 62 94
e 62 95
e 62 100
e 62 105
e 62 106
e 62 107
e 62 108
e 62 112
e 62 113
e 62 120
e 62 125
e 62 129
e 62 132
e 62 133
e 62 135
e 62 138
e 62 141
e 62 144
e 62 145
e 63 69
e 63 79
e 63 80
e 63 82
e 63 86
e 63 88
e 63 92
e 63 95
e 63 96
e 63 98
e 63 99
e 63 101
e 63 103
e 63 111
e 63 115
e 63 116
e 63 117
e 63 119
e 63 124
e 63 125
e 63 131
e 63 134
e 63 139
e 63 140
e 63 141
e 63 142
e 63 143
e 63 145
e 63 146
e 63 147
e 63 150
e 64 65
e 64 67
e 64 74
e 64 81
e 64 85
e 64 86
e 64 89
e 64 96
e 64 103
e 64 104
e 64 105
e 64 106
e 64 108
e 64 109
e 64 111
e 64 115
e 64 119
e 64 128
e 64 131
e 64 135
e 64 137
e 64 141
e 64 144
e 64 146
e 65 70
e 65 75
e 65 78
e 65 85
e 65 86
e 65 90
e 65 98
e 65 100
e 65 102
e 65 108
e 65 113
e 65 114
e 65 115
e 65 119
e 65 121
e 65 122
e 65 126
e 65 128
e 65 132
e 65 134
e 65 135
e 65 136
e 65 142
e 65 143
e 65 149
e 66 69
e 66 72
e 66 74
e 66 79
e 66 82
e 66 83
e 66 85
e 66 98
e 66 99
e 66 100
e 66 101
e 66 103
e 66 105
e 66 112
e 66 123
e 66 126
e 66 127
e 66 133
e 66 134
e 66 137
e 66 138
e 66 141
e 66 143
e 66 145
e 66 146
e 66 147
e 66 149
e 66 150
e 67 71
e 67 72
e 67 74
e 67 80
e 67 88
e 67 94
e 67 99
e 67 102
e 67 109
e 67 110
e 67 111
e 67 117
e 67 121
e 67 122
e 67 129
e 67 130
e 67 135
e 67 138
e 67 139
e 67 148
e 68 69
e 68 81
e 68 87
e 68 89
e 68 92
e 68 95
e 68 103
e 68 110
e 68 118
e 68 123
e 68 124
e 68 125
e 68 130
e 68 131
e 68 133
e 68 134
e 68 145
e 68 146
e 68 147
e 68 150
e 69 71
e 69 74
e 69 82
e 69 83
e 69 84
e 69 87
e 69 91
e 69 92
e 69 97
e 69 100
e 69 102
e 69 104
e 69 108
e 69 110
e 69 118
e 69 121
e 69 123
e 69 126
e 69 127
e 69 129
e 69 130
e 69 132
e 69 133
e 69 135
e 69 136
e 69 140
e 69 145
e 70 72
e 70 73
e 70 76
e 70 78
e 70 82
e 70 95
e 70 97
e 70 99
e 70 108
e 70 109
e 70 111
e 70 112
e 70 117
e 70 121
e 70 127
e 70 138
e 70 145
e 71 72
e 71 75
e 71 84
e 71 85
e 71 89
e 71 96
e 71 103
e 71 114
e 71 115
e 71 120
e 71 125
e 71 128
e 71 132
e 71 133
e 71 136
e 71 140
e 71 143
e 72 73
e 72 75
e 72 76
e 72 79
e 72 87
e 72 89
e 72 90
e 72 99
e 72 101
e 72 108
e 72 111
e 72 113
e 72 116
e 72 117
e 72 120
e 72 121
e 72 125
e 72 129
e 72 131
e 72 133
e 72 135
e 72 137
e 72 138
e 72 149
e 73 74
e 73 76
e 73 86
e 73 87
e 73 89
e 73 91
e 73 92
e 73 94
e 73 96
e 73 98
e 73 105
e 73 108
e 73 110
e 73 111
e 73 117
e 73 119
e 73 123
e 73 125
e 73 126
e 73 128
e 73 135
e 73 136
e 73 145
e 73 146
e 73 147
e 74 82
e 74 84
e 74 86
e 74 89
e 74 93
e 74 95
e 74 105
e 74 107
e 74 108
e 74 110
e 74 119
e 74 122
e 74 123
e 74 124
e 74 125
e 74 126
e 74 129
e 74 131
e 74 133
e 74 135
e 74 137
e 74 138
e 74 142
e 74 144
e 74 150
e 75 79
e 75 80
e 75 87
e 75 95
e 75 96
e 75 98
e 75 99
e 75 107
e 75 113
e 75 115
e 75 118
e 75 122
e 75 123
e 75 129
e 75 130
e 75 134
e 75 138
e 75 141
e 75 143
e 76 78
e 76 79
e 76 82
e 76 83
e 76 84
e 76 86
e 76 90
e 76 93
e 76 95
e 76 98
e 76 101
e 76 106
e 76 107
e 76 111
e 76 114
e 76 115
e 76 121
e 76 124
e 76 125
e 76 130
e 76 133
e 76 135
e 76 136
e 76 141
e 76 143
e 76 145
e 76 147
e 77 90
e 77 91
e 77 92
e 77 93
e 77 94
e 77 95
e 77 96
e 77 102
e 77 105
e 77 106
e 77 108
e 77 111
e 77 112
e 77 113
e 77 116
e 77 117
e 77 126
e 77 134
e 77 139
e 77 145
e 78 82
e 78 83
e 78 84
e 78 85
e 78 86
e 78 93
e 78 94
e 78 102
e 78 104
e 78 109
e 78 112
e 78 115
e 78 118
e 78 123
e 78 124
e 78 126
e 78 127
e 78 130
e 78 136
e 78 141
e 78 144
e 78 146
e 78 150
e 79 82
e 79 91
e 79 93
e 79 97
e 79 104
e 79 105
e 79 107
e 79 115
e 79 117
e 79 122
e 79 125
e 79 136
e 79 139
e 79 142
e 79 145
e 79 146
e 79 150
e 80 89
e 80 91
e 80 92
e 80 96
e 80 97
e 80 101
e 80 107
e 80 110
e 80 111
e 80 123
e 80 126
e 80 130
e 80 133
e 80 140
e 80 142
e 80 145
e 80 149
e 81 95
e 81 99
e 81 101
e 81 107
e 81 110
e 81 111
e 81 113
e 81 114
e 81 115
e 81 119
e 81 120
e 81 122
e 81 130
e 81 133
e 81 134
e 81 137
e 81 141
e 81 142
e 81 144
e 81 146
e 81 147
e 81 149
e 81 150
e 82 85
e 82 86
e 82 91
e 82 104
e 82 105
e 82 107
e 82 108
e 82 113
e 82 114
e 82 121
e 82 126
e 82 129
e 82 130
e 82 133
e 82 135
e 82 138
e 82 140
e 82 143
e 82 144
e 82 145
e 82 149
e 82 150
e 83 87
e 83 95
e 83 96
e 83 100
e 83 104
e 83 105
e 83 109
e 83 118
e 83 123
e 83 127
e 83 129
e 83 131
e 83 138
e 83 141
e 83 142
e 83 144
e 83 146
e 83 149
e 84 90
e 84 94
e 84 95
e 84 100
e 84 109
e 84 117
e 84 119
e 84 121
e 84 125
e 84 127
e 84 130
e 84 133
e 84 134
e 84 139
e 84 148
e 85 88
e 85 96
e 85 97
e 85 102
e 85 109
e 85 113
e 85 119
e 85 120
e 85 121
e 85 124
e 85 127
e 85 128
e 85 130
e 85 134
e 85 143
e 85 146
e 85 150
e 86 95
e 86 99
e 86 102
e 86 104
e 86 107
e 86 113
e 86 114
e 86 119
e 86 122
e 86 123
e 86 126
e 86 129
e 86 139
e 86 142
e 86 144
e 86 147
e 86 148
e 86 150
e 87 88
e 87 91
e 87 94
e 87 95
e 87 98
e 87 99
e 87 100
e 87 103
e 87 107
e 87 108
e 87 110
e 87 111
e 87 112
e 87 115
e 87 116
e 87 118
e 87 121
e 87 127
e 87 128
e 87 130
e 87 131
e 87 136
e 87 137
e 87 143
e 87 144
e 87 148
e 87 149
e 88 90
e 88 91
e 88 97
e 88 99
e 88 101
e 88 103
e 88 107
e 88 111
e 88 114
e 88 115
e 88 116
e 88 118
e 88 119
e 88 120
e 88 122
e 88 130
e 88 133
e 88 137
e 88 139
e 88 145
e 88 149
e 89 98
e 89 101
e 89 102
e 89 103
e 89 105
e 89 114
e 89 115
e 89 119
e 89 121
e 89 124
e 89 126
e 89 128
e 89 129
e 89 132
e 89 139
e 89 140
e 89 141
e 89 147
e 89 148
e 89 150
e 90 94
e 90 101
e 90 111
e 90 113
e 90 116
e 90 122
e 90 124
e 90 135
e 90 136
e 90 139
e 90 141
e 90 147
e 91 92
e 91 94
e 91 101
e 91 108
e 91 117
e 91 122
e 91 125
e 91 127
e 91 128
e 91 133
e 91 138
e 91 141
e 91 143
e 91 148
e 91 150
e 92 94
e 92 96
e 92 100
e 92 101
e 92 102
e 92 104
e 92 107
e 92 110
e 92 113
e 92 114
e 92 115
e 92 119
e 92 130
e 92 131
e 92 139
e 92 140
e 92 141
e 92 148
e 93 104
e 93 108
e 93 115
e 93 117
e 93 119
e 93 121
e 93 124
e 93 125
e 93 127
e 93 128
e 93 131
e 93 132
e 93 133
e 93 134
e 93 135
e 93 136
e 93 139
e 93 144
e 94 98
e 94 100
e 94 101
e 94 102
e 94 105
e 94 116
e 94 117
e 94 118
e 94 119
e 94 120
e 94 121
e 94 123
e 94 127
e 94 129
e 94 130
e 94 131
e 94 132
e 94 140
e 94 141
e 94 150
e 95 100
e 95 105
e 95 106
e 95 110
e 95 114
e 95 115
e 95 119
e 95 122
e 95 123
e 95 125
e 95 127
e 95 128
e 95 131
e 95 132
e 95 133
e 95 135
e 95 138
e 95 142
e 95 144
e 95 146
e 95 149
e 96 97
e 96 100
e 96 103
e 96 108
e 96 110
e 96 112
e 96 120
e 96 121
e 96 128
e 96 129
e 96 130
e 96 132
e 96 133
e 96 139
e 96 143
e 96 148
e 97 98
e 97 99
e 97 101
e 97 103
e 97 106
e 97 107
e 97 112
e 97 113
e 97 119
e 97 121
e 97 125
e 97 130
e 97 135
e 97 138
e 97 141
e 97 143
e 98 100
e 98 101
e 98 102
e 98 105
e 98 106
e 98 108
e 98 110
e 98 111
e 98 112
e 98 116
e 98 126
e 98 130
e 98 132
e 98 134
e 98 136
e 98 139
e 98 146
e 98 147
e 98 149
e 98 150
e 99 101
e 99 104
e 99 105
e 99 106
e 99 109
e 99 110
e 99 111
e 99 112
e 99 114
e 99 117
e 99 118
e 99 120
e 99 129
e 99 133
e 99 137
e 99 144
e 99 146
e 99 149
e 100 107
e 100 110
e 100 114
e 100 118
e 100 122
e 100 123
e 100 124
e 100 126
e 100 127
e 100 140
e 100 141
e 100 143
e 100 147
e 101 102
e 101 110
e 101 114
e 101 116
e 101 121
e 101 123
e 101 125
e 101 129
e 101 132
e 101 135
e 101 138
e 101 139
e 101 143
e 101 145
e 101 146
e 101 148
e 102 106
e 102 109
e 102 110
e 102 112
e 102 114
e 102 123
e 102 124
e 102 134
e 102 135
e 102 141
e 102 145
e 102 146
e 102 150
e 103 105
e 103 109
e 103 114
e 103 115
e 103 119
e 103 121
e 103 122
e 103 124
e 103 127
e 103 130
e 103 134
e 103 135
e 103 142
e 103 144
e 104 105
e 104 106
e 104 109
e 104 110
e 104 112
e 104 125
e 104 126
e 104 134
e 104 136
e 104 140
e 104 141
e 104 145
e 104 149
e 105 106
e 105 108
e 105 109
e 105 111
e 105 112
e 105 117
e 105 122
e 105 125
e 105 127
e 105 131
e 105 143
e 105 144
e 105 145
e 105 146
e 105 149
e 106 109
e 106 111
e 106 114
e 106 116
e 106 117
e 106 121
e 106 125
e 106 127
e 106 131
e 106 136
e 106 139
e 106 143
e 106 147
e 106 148
e 106 149
e 107 108
e 107 111
e 107 113
e 107 116
e 107 118
e 107 119
e 107 121
e 107 123
e 107 127
e 107 133
e 107 134
e 107 136
e 107 142
e 107 145
e 107 146
e 108 109
e 108 111
e 108 113
e 108 116
e 108 117
e 108 118
e 108 119
e 108 123
e 108 130
e 108 131
e 108 138
e 108 143
e 108 149
e 108 150
e 109 110
e 109 112
e 109 115
e 109 117
e 109 121
e 109 122
e 109 131
e 109 134
e 109 135
e 109 138
e 109 142
e 109 143
e 109 146
e 109 149
e 109 150
e 110 114
e 110 117
e 110 120
e 110 122
e 110 125
e 110 127
e 110 129
e 110 130
e 110 131
e 110 132
e 110 136
e 110 137
e 110 140
e 110 141
e 110 143
e 110 145
e 110 147
e 110 149
e 111 114
e 111 116
e 111 117
e 111 118
e 111 119
e 111 124
e 111 133
e 111 135
e 111 140
e 111 144
e 112 113
e 112 115
e 112 116
e 112 117
e 112 122
e 112 123
e 112 125
e 112 126
e 112 128
e 112 133
e 112 142
e 112 146
e 112 147
e 112 148
e 112 149
e 113 118
e 113 120
e 113 123
e 113 128
e 113 137
e 113 138
e 113 142
e 113 143
e 113 146
e 113 147
e 113 148
e 113 150
e 114 118
e 114 121
e 114 122
e 114 124
e 114 128
e 114 131
e 114 134
e 114 135
e 114 136
e 114 143
e 115 121
e 115 122
e 115 132
e 115 135
e 115 139
e 115 142
e 115 143
e 115 146
e 115 150
e 116 117
e 116 128
e 116 129
e 116 141
e 116 142
e 116 144
e 116 145
e 116 146
e 116 147
e 117 120
e 117 121
e 117 122
e 117 123
e 117 124
e 117 128
e 117 131
e 117 133
e 117 134
e 117 135
e 117 144
e 117 145
e 117 148
e 117 150
e 118 119
e 118 121
e 118 125
e 118 127
e 118 130
e 118 135
e 118 140
e 118 146
e 118 147
e 118 148
e 118 149
e 119 123
e 119 125
e 119 130
e 119 131
e 119 135
e 119 139
e 119 141
e 119 142
e 119 143
e 119 146
e 119 148
e 119 150
e 120 124
e 120 128
e 120 129
e 120 130
e 120 131
e 120 137
e 120 147
e 120 148
e 120 149
e 121 123
e 121 125
e 121 126
e 121 131
e 121 132
e 121 137
e 121 140
e 121 145
e 121 149
e 122 123
e 122 124
e 122 126
e 122 133
e 122 142
e 122 146
e 122 147
e 122 150
e 123 125
e 123 130
e 123 137
e 123 140
e 123 145
e 123 149
e 123 150
e 124 125
e 124 129
e 124 133
e 124 136
e 124 137
e 124 139
e 124 140
e 124 143
e 124 147
e 124 148
e 124 150
e 125 131
e 125 134
e 125 135
e 125 136
e 125 141
e 125 147
e 125 148
e 126 135
e 126 136
e 126 137
e 126 148
e 127 130
e 127 135
e 127 137
e 127 138
e 127 140
e 127 142
e 127 144
e 127 147
e 127 149
e 128 131
e 128 134
e 128 135
e 128 137
e 128 138
e 128 139
e 128 140
e 129 131
e 129 133
e 129 135
e 129 136
e 129 140
e 129 145
e 129 149
e 130 131
e 130 137
e 130 138
e 130 140
e 130 143
e 130 144
e 130 145
e 131 134
e 131 137
e 131 139
e 131 140
e 131 142
e 131 145
e 131 149
e 132 136
e 132 139
e 132 141
e 132 145
e 132 148
e 133 134
e 133 136
e 133 142
e 133 144
e 133 146
e 133 150
e 134 135
e 134 138
e 134 141
e 134 143
e 134 144
e 134 145
e 134 150
e 135 140
e 135 142
e 135 143
e 136 137
e 136 138
e 136 142
e 136 143
e 136 148
e 136 149
e 137 139
e 137 144
e 137 148
e 138 142
e 138 149
e 139 146
e 139 147
e 139 149
e 140 141
e 140 145
e 140 146
e 140 147
e 140 150
e 141 144
e 141 148
e 141 149
e 141 150
e 142 150
e 143 148
e 144 145
e 146 147
e 147 150
e 148 150
